log/npfs-ilp/npfs-10_results/ilp-VFR200_20_1.out
MIPGap: 0.731732
Runtime: 1800.08
Best solution: 13731
Best bound: 3684
