log/npfs-ilp/npfs-10_results/ilp-VFR200_20_1.stdout
VFR200_20_1.txt
Set parameter Username
Academic license - for non-commercial use only - expires 2023-04-30
Set parameter Threads to value 8
Set parameter TimeLimit to value 1800
Gurobi Optimizer version 9.5.1 build v9.5.1rc2 (linux64)
Thread count: 4 physical cores, 8 logical processors, using up to 8 threads
Optimize a model with 1198000 rows, 804001 columns and 3192000 nonzeros
Model fingerprint: 0x2b67c352
Variable types: 4001 continuous, 800000 integer (800000 binary)
Coefficient statistics:
  Matrix range     [1e+00, 2e+05]
  Objective range  [1e+00, 1e+00]
  Bounds range     [1e+00, 1e+00]
  RHS range        [1e+00, 2e+05]
Presolve removed 398000 rows and 402000 columns
Presolve time: 4.84s
Presolved: 800000 rows, 402001 columns, 2396000 nonzeros
Variable types: 4001 continuous, 398000 integer (398000 binary)
Found heuristic solution: objective 13731.000000

Deterministic concurrent LP optimizer: primal simplex, dual simplex, and barrier
Showing barrier log only...

Root barrier log...

Ordering time: 6.64s

Barrier performed 0 iterations in 78.39 seconds (34.09 work units)
Barrier solve interrupted - model solved by another algorithm

Concurrent spin time: 4.28s (can be avoided by choosing Method=3)

Solved with dual simplex

Root relaxation: objective 1.391000e+03, 274831 iterations, 10.12 seconds (3.62 work units)

    Nodes    |    Current Node    |     Objective Bounds      |     Work
 Expl Unexpl |  Obj  Depth IntInf | Incumbent    BestBd   Gap | It/Node Time

     0     0 1391.00000    0 143483 13731.0000 1391.00000  89.9%     -  128s
     0     0 1473.38278    0 159378 13731.0000 1473.38278  89.3%     -  453s
     0     0 1860.05519    0 188602 13731.0000 1860.05519  86.5%     - 1545s
     0     0 2471.38249    0 208264 13731.0000 2471.38249  82.0%     - 1600s
     0     0 3070.72705    0 209914 13731.0000 3070.72705  77.6%     - 1688s
     0     0 3683.58279    0 212704 13731.0000 3683.58279  73.2%     - 1786s
     0     0          -    0      13731.0000 3683.58279  73.2%     - 1800s

Explored 1 nodes (939949 simplex iterations) in 1800.06 seconds (935.22 work units)
Thread count was 8 (of 8 available processors)

Solution count 1: 13731 

Time limit reached
Best objective 1.373100000000e+04, best bound 3.683582793937e+03, gap 73.1732%
